10
18
0 164 84 128 54 197 125 131 52 109 106 185 95 24 11 102 110 172
23
0 137 162 10 82 183 144 83 18 97 186 31 177 103 135 39 134 42 198 189 145 182 56
24
0 70 179 89 62 127 170 124 156 69 101 115 19 50 161 48 61 91 158 195 26 132 73 129
18
0 169 4 178 120 45 20 187 191 40 35 141 93 196 193 30 192 74
20
0 123 21 57 116 181 49 12 14 86 29 68 36 188 34 139 159 37 126 108
13
0 43 136 23 175 100 180 60 154 55 147 150 99
22
0 51 38 114 22 151 140 146 90 200 149 118 117 143 165 130 80 168 174 67 85 148
23
0 65 64 41 66 8 152 13 1 3 190 63 163 107 77 9 138 153 155 142 133 81 160
25
0 59 105 5 46 184 72 87 167 88 16 47 76 7 113 15 166 173 112 119 122 176 98 94 104
24
0 27 32 111 17 78 2 25 6 79 121 157 44 33 75 58 96 92 171 28 194 53 71 199
